2
150 3
37
20 1 2
21 1 1
23 1 1
24 1 2
27 1 1
30 1 1
31 1 1
33 1 1
34 1 1
35 1 2
36 1 2
37 1 1
42 1 1
43 1 1
44 1 2
45 1 2
50 1 1
53 1 1
57 1 2
69 1 3
71 1 1
72 1 1
73 1 1
76 1 2
77 1 1
80 1 2
83 1 1
85 1 1
86 1 1
87 1 2
88 1 2
89 1 1
92 1 1
94 1 1
95 1 1
96 1 1
98 1 1
